[[273881,403857021,611452932,693183808,767660199,815867043,974083809],[5969467,319428814,632147771,715804572,773111881,833523676,972501576],[10309146,327640335,635325627,719925630,791760900,835595245,957567427],[74930784,203995979,639442135,734837444,796948325,864079663,954481195],[46657026,56724914,62622238,63530088,160545433,176750242,185489096,231779694],[90024170,205437284,267058550,357915090,645885730,797429306,899683579,949970768],[101185644,205833528,268182749,388155241,673570427,797645767,903722549,944605364],[121449557,207659617,273437577,391796692,590253108,800199097,907889722,938864215],[154649474,212854333,297688535,399513040,541634076,810987938,913442868,926509927],[219390769,437313477,464273198,515111873,553458491,579491364,692231696,749112129],[259491019,407585305,440670104,487195041,527210532,571811436,605239550,759585529],[260479787,417445747,451293411,488199413,528065248,576066437,676860803,749375247],[314282302,341111629,440342565,476691087,516438491,556848802,589635634,766084831]]